p cnf 10 20
2 -3 5 0
-7 6 4 0
6 -9 -2 0
-6 1 -3 0
-2 -4 -6 0
6 2 3 0
8 -4 9 0
-9 2 -3 0
-8 1 -3 0
9 -1 7 0
5 -7 8 0
-8 2 3 0
1 3 -9 0
7 -6 2 0
10 -9 8 0
-5 -7 -6 0
-3 -5 -10 0
9 7 -5 0
-1 -8 4 0
-8 -10 7 0
